(declare-fun temp271_1 () (_ BitVec 64))
(declare-fun var397898 () (_ BitVec 64))
(declare-fun var397900 () (_ BitVec 64))
(declare-fun temp271_3 () (_ BitVec 64))
(declare-fun temp271_2 () (_ BitVec 64))
(declare-fun temp271_4 () (_ BitVec 64))
(declare-fun var1063364 () (_ BitVec 64))
(declare-fun k!0 () Bool)
(declare-fun ARGNAME_shape_NAMEEND_LEN () (_ BitVec 64))
(declare-fun temp271_5 () (_ BitVec 64))
(declare-fun temp271_6 () (_ BitVec 64))
(declare-fun ARGNAME_shape_NAMEEND_VAL () (Array (_ BitVec 64) (_ BitVec 64)))
(declare-fun temp271_7 () (_ BitVec 64))
(declare-fun temp271_8 () (_ BitVec 64))
(declare-fun temp271_9 () (_ BitVec 64))
(declare-fun temp271_10 () (_ BitVec 64))
(declare-fun temp271_11 () (_ BitVec 64))
(declare-fun temp271_12 () (_ BitVec 64))
(declare-fun temp271_13 () (_ BitVec 64))
(declare-fun temp271_14 () (_ BitVec 64))
(declare-fun temp271_15 () (_ BitVec 64))
(declare-fun temp271_16 () (_ BitVec 64))
(declare-fun temp271_17 () (_ BitVec 64))
(declare-fun temp271_18 () (_ BitVec 64))
(declare-fun temp271_19 () (_ BitVec 64))
(declare-fun temp271_20 () (_ BitVec 64))
(declare-fun temp271_21 () (_ BitVec 64))
(declare-fun temp271_22 () (_ BitVec 64))
(declare-fun var1063371 () (_ BitVec 64))
(declare-fun temp271_24 () (_ BitVec 64))
(declare-fun temp271_25 () (_ BitVec 64))
(declare-fun temp271_23 () (_ BitVec 64))
(declare-fun temp271_26 () (_ BitVec 64))
(declare-fun var1063376 () (_ BitVec 64))
(declare-fun temp271_27 () (_ BitVec 64))
(declare-fun temp271_28 () (_ BitVec 64))
(declare-fun var1063372 () (_ BitVec 64))
(declare-fun var1063441 () (_ BitVec 64))
(declare-fun temp271_30 () (_ BitVec 64))
(declare-fun var1641132 () (_ BitVec 64))
(declare-fun var1641140 () (_ BitVec 64))
(assert (= temp271_1 #x0000000000000005))
(assert (= var397898 temp271_1))
(assert (= var397900 var397898))
(assert (= temp271_3 #x0000000000000000))
(assert (= temp271_2 temp271_3))
(assert (= var1063364
   (ite (= temp271_2 ARGNAME_shape_NAMEEND_LEN)
        #x0000000000000001
        #x0000000000000000)))
(assert (= temp271_4 #x0000000000000000))
(assert (= var1063364 temp271_4))
(assert (= temp271_5 #x0000000000000000))
(assert (= temp271_6 temp271_5))
(assert (= temp271_7 (select ARGNAME_shape_NAMEEND_VAL temp271_6)))
(assert (= temp271_8 #x0000000000000001))
(assert (= temp271_9 temp271_8))
(assert (= temp271_10 (select ARGNAME_shape_NAMEEND_VAL temp271_9)))
(assert (= temp271_11 #x0000000000000002))
(assert (= temp271_12 temp271_11))
(assert (= temp271_13 (select ARGNAME_shape_NAMEEND_VAL temp271_12)))
(assert (= temp271_14 #x0000000000000003))
(assert (= temp271_15 temp271_14))
(assert (= temp271_16 (select ARGNAME_shape_NAMEEND_VAL temp271_15)))
(assert (= temp271_17 #x0000000000000004))
(assert (= temp271_18 temp271_17))
(assert (= temp271_19 (select ARGNAME_shape_NAMEEND_VAL temp271_18)))
(assert (= temp271_20 #x0000000000000005))
(assert (= temp271_21 temp271_20))
(assert (= temp271_22 (select ARGNAME_shape_NAMEEND_VAL temp271_21)))
(assert (= temp271_24 var1063371))
(assert (= temp271_25 (select ARGNAME_shape_NAMEEND_VAL temp271_24)))
(assert (= temp271_23 temp271_25))
(assert (= temp271_26 #xffffffffffffffff))
(assert (= var1063376
   (ite (= temp271_23 temp271_26) #x0000000000000001 #x0000000000000000)))
(assert (= temp271_27 #x0000000000000001))
(assert (= var1063376 temp271_27))
(assert (= temp271_28 #x0000000000000001))
(assert (= var1063372 (bvadd temp271_2 temp271_28)))
(assert (= var1063441
   (ite (= var1063372 ARGNAME_shape_NAMEEND_LEN)
        #x0000000000000001
        #x0000000000000000)))
(assert (= temp271_30 #x0000000000000001))
(assert (= var1641132 temp271_30))
(assert (= var1641140 var1641132))
(model-add temp271_1 () (_ BitVec 64) #x0000000000000005)
(model-add var397898 () (_ BitVec 64) #x0000000000000005)
(model-add var397900 () (_ BitVec 64) #x0000000000000005)
(model-add temp271_3 () (_ BitVec 64) #x0000000000000000)
(model-add temp271_2 () (_ BitVec 64) #x0000000000000000)
(model-add temp271_4 () (_ BitVec 64) #x0000000000000000)
(model-add var1063364 () (_ BitVec 64) #x0000000000000000)
(model-del k!0)
(model-add ARGNAME_shape_NAMEEND_LEN
           ()
           (_ BitVec 64)
           (ite k!0 #x0000000000000000 (bvnot #x0000000000000000)))






